param set_len = 14;
param target_sum = 3420710075;
param values := [1] 305467018 [2] 905867415 [3] 491302673 [4] 283528929 [5] 529498110 [6] 117812272 [7] 639961430 [8] 573819007 [9] 75804042 [10] 319405395 [11] 10868798 [12] 708636738 [13] 161018803 [14] 683400025 ;
